p cnf 7230 16
-5455 -5875 -5880 0
-5876 5880 0
-3458 -5707 -5881 0
3458 -5882 0
5881 5882 0
5877 5878 0
5695 -5878 0
-5695 -5877 0
5875 5876 0
5707 -5882 0
5455 -5876 0
5879 5880 0
5697 -5880 0
-5697 -5879 0
-5699 5884 0
5699 -5884 0
